NAME : instances/20-120-tsp/instance-46.tsp
COMMENT : No Comment
TYPE : TSP
DIMENSION: 46
EDGE_WEIGHT_TYPE : EUC_2D
NODE_COORD_SECTION
1 3568 5258 
2 7349 1729 
3 7490 9259 
4 7162 7868 
5 4079 2187 
6 7947 5399 
7 3494 6882 
8 2296 4600 
9 3241 1188 
10 2453 2265 
11 3690 2180 
12 9507 973 
13 7932 4829 
14 7713 845 
15 4643 1953 
16 5353 8669 
17 3749 4532 
18 9311 3064 
19 4968 8242 
20 507 6219 
21 9352 6769 
22 6510 2964 
23 6330 9037 
24 7156 356 
25 7626 6742 
26 5649 465 
27 5220 2046 
28 5881 8732 
29 4586 2248 
30 154 21 
31 3614 218 
32 6940 6705 
33 8893 894 
34 6299 1401 
35 5006 9511 
36 1747 9677 
37 9802 9021 
38 441 2147 
39 6705 5807 
40 2105 548 
41 5490 1218 
42 4484 8933 
43 2335 3099 
44 6675 4035 
45 6058 407 
46 8501 3623 
EOF
